(declare-fun e () String)
(declare-fun c () String)
(declare-fun g () String)
(declare-fun d () String)
(declare-fun f () String)
(declare-fun a () String)
(declare-fun h () String)
(assert (= (str.++ "hd" e) "e"))
(assert (= (str.++ d "fdfe") (str.++ e "e" c h d c)))
(assert (= (str.++ "h" g "g" h f) (str.++ "db" a "b")))

(check-sat)
